c uprop, v00.0, 
c reading from data/prog570.c.cnf
c done reading: 0
p cnf 77 290
-35 -41 0
35 41 0
-45 -55 0
45 55 0
-30 -48 0
30 48 0
35 -60 0
-35 60 0
43 -45 0
-43 45 0
-43 45 -62 0
-43 -62 0
43 -45 62 0
43 62 0
-30 -35 57 0
-30 -43 57 0
-35 -43 57 0
30 35 -57 0
30 43 -57 0
35 43 -57 0
30 -36 -57 0
35 -36 -57 0
-36 43 -57 0
-30 36 57 0
-35 36 57 0
36 -43 57 0
-30 -35 36 -43 0
30 35 -36 43 0
45 -51 0
-51 57 0
-45 51 -57 0
-45 -57 -59 0
45 57 -59 0
-45 57 59 0
45 -57 59 0
30 -33 0
-33 51 0
-30 33 -51 0
-30 -31 -51 0
30 -31 51 0
-30 31 51 0
30 31 -51 0
28 -60 0
-28 60 0
-26 -28 60 0
-26 -28 0
26 28 -60 0
26 28 0
23 -62 0
23 -28 -62 0
23 -28 0
-23 28 62 0
-21 -23 62 0
-21 -23 28 0
21 23 -62 0
21 23 0
21 23 -28 0
21 -28 -62 0
-23 -36 38 0
36 -38 0
23 36 -38 0
23 -38 0
-19 36 -38 0
-19 -38 0
-19 23 -38 0
19 -36 38 0
19 -23 38 0
-19 23 36 0
-35 52 -59 0
-38 52 -59 0
-35 -38 52 0
35 -52 59 0
38 -52 59 0
35 38 -52 0
-17 -52 59 0
-17 35 -52 0
-17 38 -52 0
17 52 -59 0
17 -35 52 0
17 -38 52 0
17 -35 -38 -59 0
-17 35 38 59 0
-31 -45 46 0
-31 46 -52 0
-45 46 -52 0
31 45 -46 0
31 -46 52 0
45 -46 52 0
-16 31 -46 0
-16 45 -46 0
-16 -46 52 0
16 -31 46 0
16 -45 46 0
16 46 -52 0
16 -31 -45 -52 0
-16 31 45 52 0
15 -30 -33 0
15 -33 -46 0
15 -30 -46 0
-15 30 33 0
-15 33 46 0
-15 30 46 0
-14 -15 33 0
-14 -15 30 0
-14 -15 46 0
14 15 -33 0
14 15 -30 0
14 15 -46 0
14 -30 -33 -46 0
-14 30 33 46 0
-26 -50 0
26 50 0
-21 -32 0
21 32 0
-19 -64 0
19 64 0
-17 -65 0
17 65 0
-16 -66 0
16 66 0
-14 -67 0
14 67 0
-15 -68 0
15 68 0
-27 -42 0
-25 -42 0
25 27 42 0
25 27 -69 0
-25 -27 -69 0
25 -27 69 0
-25 27 69 0
42 -56 0
-22 -56 0
22 -42 56 0
22 -42 -70 0
-22 42 -70 0
22 42 70 0
-22 -42 70 0
-49 56 0
-40 -49 0
40 49 -56 0
40 -56 -71 0
-40 56 -71 0
40 56 71 0
-40 -56 71 0
49 -72 0
-20 -72 0
20 -49 72 0
20 -49 -73 0
-20 49 -73 0
20 49 73 0
-20 -49 73 0
72 -74 0
-54 -74 0
54 -72 74 0
54 -72 -75 0
-54 72 -75 0
54 72 75 0
-54 -72 75 0
74 -76 0
-18 -76 0
18 -74 76 0
18 -74 -77 0
-18 74 -77 0
18 74 77 0
-18 -74 77 0
-61 76 0
-47 -61 0
47 61 -76 0
-44 47 -76 0
-44 -47 76 0
44 47 76 0
44 -47 -76 0
-27 -63 0
-25 -63 0
25 27 63 0
25 27 -58 0
-25 -27 -58 0
25 -27 58 0
-25 27 58 0
-37 63 0
-22 -37 0
22 37 -63 0
-13 22 -63 0
-13 -22 63 0
13 22 63 0
13 -22 -63 0
-12 37 0
-12 -40 0
12 -37 40 0
-11 -37 40 0
-11 37 -40 0
11 37 40 0
11 -37 -40 0
-10 12 0
-10 -20 0
10 -12 20 0
-9 -12 20 0
-9 12 -20 0
9 12 20 0
9 -12 -20 0
-8 10 0
-8 -54 0
8 -10 54 0
-7 -10 54 0
-7 10 -54 0
7 10 54 0
7 -10 -54 0
-6 8 0
-6 -18 0
6 -8 18 0
-5 -8 18 0
-5 8 -18 0
5 8 18 0
5 -8 -18 0
-4 6 0
-4 -47 0
4 -6 47 0
-3 -6 47 0
-3 6 -47 0
3 6 47 0
3 -6 -47 0
-2 26 0
-2 27 0
2 -26 -27 0
-26 27 0
26 -27 0
1 -21 -25 0
1 -2 -21 0
1 -2 -25 0
-1 21 25 0
-1 2 21 0
-1 2 25 0
-1 21 0
-1 25 0
-1 2 0
2 21 25 0
-19 -22 34 0
-1 -19 34 0
-1 -22 34 0
19 22 -34 0
1 19 -34 0
1 22 -34 0
19 -34 0
22 -34 0
1 -34 0
1 19 22 0
-17 29 -40 0
-17 29 -34 0
29 -34 -40 0
17 -29 40 0
17 -29 34 0
-29 34 40 0
-17 29 0
29 -40 0
29 -34 0
-17 -34 -40 0
-16 -20 24 0
-16 24 -29 0
-20 24 -29 0
16 20 -24 0
16 -24 29 0
20 -24 29 0
-16 24 0
-20 24 0
24 -29 0
-16 -20 -29 0
-14 39 -54 0
-14 -24 39 0
-24 39 -54 0
14 -39 54 0
14 24 -39 0
24 -39 54 0
-14 39 0
39 -54 0
-24 39 0
-14 -24 -54 0
-15 -18 53 0
-15 -39 53 0
-18 -39 53 0
15 18 -53 0
15 39 -53 0
18 39 -53 0
-15 53 0
-18 53 0
-39 53 0
-15 -18 -39 0
-47 -53 0
-47 53 0
47 -53 0
